data/solutions/planning/wellformed/hard/weighting/wellformed_hard_instance84_gurobi.sol
Elapsed time: 1000.7
Nodes explored: 733113
Nodes left: 679652
Relative gap: 4.542
Upper bound: 4.15697647505e+12
Lower bound: 3968180498960
C[0]=124374.0
C[1]=123695.0
C[2]=123550.0
C[3]=123138.0
C[4]=122648.0
C[5]=122008.0
C[6]=121886.0
C[7]=121883.0
C[8]=120514.0
C[9]=120402.0
C[10]=120089.0
C[11]=118866.0
C[12]=118733.0
C[13]=118401.0
C[14]=117236.0
C[15]=117031.0
C[16]=116211.0
C[17]=115786.0
C[18]=115561.0
C[19]=115470.0
C[20]=113225.0
C[21]=113202.0
C[22]=112171.0
C[23]=112078.0
C[24]=108351.0
y[0]=14
y[1]=10
y[2]=3
y[3]=18
y[4]=22
y[5]=15
y[6]=7
y[7]=9
y[8]=13
y[9]=12
y[10]=15
y[11]=17
y[12]=1
y[13]=15
y[14]=24
y[15]=2
y[16]=13
y[17]=17
y[18]=6
y[19]=24
y[20]=3
y[21]=10
y[22]=0
y[23]=4
y[24]=23
y[25]=11
y[26]=12
y[27]=4
y[28]=5
y[29]=4
y[30]=17
y[31]=20
y[32]=9
y[33]=1
y[34]=1
y[35]=21
y[36]=10
y[37]=2
y[38]=6
y[39]=20
y[40]=0
y[41]=22
y[42]=9
y[43]=0
y[44]=1
y[45]=22
y[46]=11
y[47]=24
y[48]=23
y[49]=19
y[50]=3
y[51]=4
y[52]=24
y[53]=0
y[54]=4
y[55]=4
y[56]=11
y[57]=17
y[58]=5
y[59]=2
y[60]=17
y[61]=1
y[62]=0
y[63]=23
y[64]=13
y[65]=5
y[66]=10
y[67]=4
y[68]=22
y[69]=15
y[70]=16
y[71]=1
y[72]=23
y[73]=18
y[74]=23
y[75]=17
y[76]=14
y[77]=12
y[78]=22
y[79]=14
y[80]=19
y[81]=6
y[82]=14
y[83]=21
y[84]=12
y[85]=18
y[86]=18
y[87]=18
y[88]=12
y[89]=16
y[90]=8
y[91]=10
y[92]=7
y[93]=15
y[94]=9
y[95]=9
y[96]=8
y[97]=19
y[98]=4
y[99]=5
y[100]=9
y[101]=7
y[102]=5
y[103]=23
y[104]=12
y[105]=5
y[106]=0
y[107]=21
y[108]=12
y[109]=4
y[110]=17
y[111]=6
y[112]=14
y[113]=22
y[114]=6
y[115]=24
y[116]=7
y[117]=21
y[118]=22
y[119]=9
y[120]=24
y[121]=3
y[122]=22
y[123]=8
y[124]=3
y[125]=20
y[126]=13
y[127]=20
y[128]=22
y[129]=4
y[130]=14
y[131]=24
y[132]=23
y[133]=12
y[134]=12
y[135]=14
y[136]=21
y[137]=9
y[138]=5
y[139]=8
y[140]=11
y[141]=15
y[142]=19
y[143]=20
y[144]=1
y[145]=12
y[146]=2
y[147]=14
y[148]=5
y[149]=13
y[150]=9
y[151]=14
y[152]=17
y[153]=19
y[154]=3
y[155]=2
y[156]=17
y[157]=24
y[158]=8
y[159]=20
y[160]=15
y[161]=7
y[162]=23
y[163]=19
y[164]=9
y[165]=13
y[166]=16
y[167]=24
y[168]=15
y[169]=11
y[170]=19
y[171]=11
y[172]=9
y[173]=22
y[174]=18
y[175]=3
y[176]=18
y[177]=8
y[178]=13
y[179]=16
y[180]=20
y[181]=8
y[182]=20
y[183]=18
y[184]=9
y[185]=18
y[186]=21
y[187]=6
y[188]=11
y[189]=10
y[190]=20
y[191]=2
y[192]=21
y[193]=6
y[194]=16
y[195]=9
y[196]=11
y[197]=23
y[198]=17
y[199]=14
y[200]=19
y[201]=8
y[202]=24
y[203]=20
y[204]=24
y[205]=7
y[206]=23
y[207]=12
y[208]=22
y[209]=11
y[210]=19
y[211]=0
y[212]=11
y[213]=4
y[214]=1
y[215]=24
y[216]=20
y[217]=24
y[218]=11
y[219]=2
y[220]=17
y[221]=3
y[222]=4
y[223]=6
y[224]=10
y[225]=8
y[226]=10
y[227]=4
y[228]=9
y[229]=12
y[230]=9
y[231]=0
y[232]=4
y[233]=0
y[234]=14
y[235]=24
y[236]=21
y[237]=20
y[238]=6
y[239]=12
y[240]=12
y[241]=23
y[242]=16
y[243]=9
y[244]=1
y[245]=23
y[246]=12
y[247]=20
y[248]=17
y[249]=14
y[250]=22
y[251]=14
y[252]=13
y[253]=23
y[254]=9
y[255]=5
y[256]=6
y[257]=5
y[258]=3
y[259]=16
y[260]=0
y[261]=4
y[262]=13
y[263]=21
y[264]=24
y[265]=24
y[266]=2
y[267]=12
y[268]=11
y[269]=8
y[270]=16
y[271]=13
y[272]=18
y[273]=8
y[274]=14
y[275]=24
y[276]=21
y[277]=2
y[278]=7
y[279]=3
y[280]=8
y[281]=2
y[282]=10
y[283]=16
y[284]=9
y[285]=19
y[286]=6
y[287]=23
y[288]=20
y[289]=6
y[290]=7
y[291]=13
y[292]=24
y[293]=24
y[294]=24
y[295]=12
y[296]=19
y[297]=7
y[298]=14
y[299]=24
