data/solutions/planning/wellformed/hard/weighting/wellformed_hard_instance84_gurobi.log

Gurobi 6.5.2 (linux64) logging started Sun Mar  4 11:25:14 2018

Changed value of parameter LogFile to data/solutions/planning/wellformed/hard/weighting/wellformed_hard_instance84_gurobi.log
   Prev: gurobi.log  Default: 
Changed value of parameter Threads to 1
   Prev: 0  Min: 0  Max: 1024  Default: 0
Optimize a model with 350 rows, 7526 columns and 15074 nonzeros
Coefficient statistics:
  Matrix range    [1e+00, 2e+04]
  Objective range [1e+00, 2e+07]
  Bounds range    [1e+00, 1e+00]
  RHS range       [1e+00, 1e+00]
Presolve removed 3 rows and 3 columns
Presolve time: 0.02s
Presolved: 347 rows, 7523 columns, 15069 nonzeros
Variable types: 0 continuous, 7523 integer (7500 binary)
Found heuristic solution: objective 4.960199e+13

Root relaxation: objective 3.968159e+12, 1086 iterations, 0.04 seconds

    Nodes    |    Current Node    |     Objective Bounds      |     Work
 Expl Unexpl |  Obj  Depth IntInf | Incumbent    BestBd   Gap | It/Node Time

     0     0 3.9682e+12    0   68 4.9602e+13 3.9682e+12  92.0%     -    0s
     0     0 3.9682e+12    0   69 4.9602e+13 3.9682e+12  92.0%     -    0s
     0     0 3.9682e+12    0   68 4.9602e+13 3.9682e+12  92.0%     -    0s
     0     0 3.9682e+12    0   69 4.9602e+13 3.9682e+12  92.0%     -    0s
     0     0 3.9682e+12    0   70 4.9602e+13 3.9682e+12  92.0%     -    0s
     0     0 3.9682e+12    0   68 4.9602e+13 3.9682e+12  92.0%     -    1s
     0     0 3.9682e+12    0   69 4.9602e+13 3.9682e+12  92.0%     -    1s
     0     0 3.9682e+12    0   66 4.9602e+13 3.9682e+12  92.0%     -    1s
     0     2 3.9682e+12    0   67 4.9602e+13 3.9682e+12  92.0%     -    1s
H   27    27                    7.042324e+12 3.9682e+12  43.7%   246    2s
  1039   965 3.9876e+12  448   69 7.0423e+12 3.9682e+12  43.7%  11.0    5s
  1061   981 3.9682e+12   16   42 7.0423e+12 3.9682e+12  43.7%  52.6   10s
  1488  1266 3.9685e+12  369   40 7.0423e+12 3.9682e+12  43.7%  43.7   15s
H 1554  1259                    5.007236e+12 3.9682e+12  20.8%  47.2   16s
  1745  1388 3.9685e+12  498   41 5.0072e+12 3.9682e+12  20.8%  56.2   20s
  2013  1563 3.9685e+12  636   42 5.0072e+12 3.9682e+12  20.8%  75.5   25s
  3163  2277 3.9683e+12  679   41 5.0072e+12 3.9682e+12  20.8%  55.4   30s
H 3418  2229                    4.601010e+12 3.9682e+12  13.8%  54.3   31s
  4566  3246 3.9682e+12   91   45 4.6010e+12 3.9682e+12  13.8%  44.5   35s
  6693  5342 3.9687e+12  399   40 4.6010e+12 3.9682e+12  13.8%  36.5   40s
  6942  5591 3.9687e+12  450   39 4.6010e+12 3.9682e+12  13.8%  46.5   45s
H 7260  5907                    4.582516e+12 3.9682e+12  13.4%  52.3   49s
  7314  5963 3.9687e+12  528   39 4.5825e+12 3.9682e+12  13.4%  52.2   50s
  9534  8107 3.9682e+12  550   37 4.5825e+12 3.9682e+12  13.4%  42.5   55s
 10202  8771 3.9682e+12  668   40 4.5825e+12 3.9682e+12  13.4%  40.0   64s
 10864  9358 3.9682e+12  671   37 4.5825e+12 3.9682e+12  13.4%  37.9   65s
H12049 10523                    4.534745e+12 3.9682e+12  12.5%  34.7   66s
H13157 11603                    4.534730e+12 3.9682e+12  12.5%  32.4   68s
 14409 12804 3.9682e+12 1339   37 4.5347e+12 3.9682e+12  12.5%  30.2   70s
 17701 16019 3.9682e+12 1595   43 4.5347e+12 3.9682e+12  12.5%  25.7   75s
 21447 19624 3.9682e+12 1091   39 4.5347e+12 3.9682e+12  12.5%  22.2   80s
 23601 21646 3.9682e+12 1845   42 4.5347e+12 3.9682e+12  12.5%  20.9   85s
H25517 23494                    4.532724e+12 3.9682e+12  12.5%  19.8   87s
 27046 24984 3.9682e+12  741   35 4.5327e+12 3.9682e+12  12.5%  19.0   90s
 31333 29159 3.9682e+12  791   48 4.5327e+12 3.9682e+12  12.5%  17.2   95s
 34456 31970 3.9686e+12  574   39 4.5327e+12 3.9682e+12  12.5%  16.6  100s
H34709 32217                    4.459940e+12 3.9682e+12  11.0%  19.0  102s
 34945 32451 3.9689e+12  655   40 4.4599e+12 3.9682e+12  11.0%  20.8  105s
 35384 32839 3.9689e+12  715   40 4.4599e+12 3.9682e+12  11.0%  23.0  110s
 37865 35104 3.9682e+12  606   39 4.4599e+12 3.9682e+12  11.0%  22.5  115s
 41703 38749 3.9682e+12  733   42 4.4599e+12 3.9682e+12  11.0%  21.0  120s
 46094 42858 3.9684e+12  585   35 4.4599e+12 3.9682e+12  11.0%  19.7  125s
H47068 43756                    4.459940e+12 3.9682e+12  11.0%  20.4  128s
 48112 44722 3.9682e+12  716   39 4.4599e+12 3.9682e+12  11.0%  20.0  130s
 52587 49002 3.9682e+12 1122   41 4.4599e+12 3.9682e+12  11.0%  18.8  135s
 56751 52897 3.9682e+12 1145   41 4.4599e+12 3.9682e+12  11.0%  17.9  140s
 59902 55774 3.9682e+12  604   36 4.4599e+12 3.9682e+12  11.0%  17.4  145s
 64703 60328 3.9682e+12 1180   57 4.4599e+12 3.9682e+12  11.0%  16.5  150s
 68424 63796 3.9688e+12  601   36 4.4599e+12 3.9682e+12  11.0%  15.9  155s
 69092 64424 3.9689e+12  685   38 4.4599e+12 3.9682e+12  11.0%  17.2  160s
 71745 66834 3.9690e+12  805   35 4.4599e+12 3.9682e+12  11.0%  17.0  165s
 76149 71017 3.9682e+12  931   41 4.4599e+12 3.9682e+12  11.0%  16.4  170s
H77525 72305                    4.444907e+12 3.9682e+12  10.7%  16.2  171s
 80042 74678 3.9686e+12  566   35 4.4449e+12 3.9682e+12  10.7%  15.9  175s
 82162 76610 3.9682e+12 1279   38 4.4449e+12 3.9682e+12  10.7%  16.5  180s
 86717 80832 3.9682e+12 1082   39 4.4449e+12 3.9682e+12  10.7%  16.0  185s
 90718 84626 infeasible 1016      4.4449e+12 3.9682e+12  10.7%  15.6  190s
 93647 87357 3.9697e+12 1235   37 4.4449e+12 3.9682e+12  10.7%  15.8  195s
 96129 89678 3.9697e+12  778   37 4.4449e+12 3.9682e+12  10.7%  16.1  200s
 100657 94006 3.9695e+12 1049   34 4.4449e+12 3.9682e+12  10.7%  15.6  205s
H100893 94222                    4.416725e+12 3.9682e+12  10.2%  15.6  205s
 103697 96800 3.9686e+12  573   35 4.4167e+12 3.9682e+12  10.2%  15.5  210s
 105145 98059 3.9688e+12  783   28 4.4167e+12 3.9682e+12  10.2%  15.9  215s
 107972 100516 3.9688e+12  846   35 4.4167e+12 3.9682e+12  10.2%  15.6  220s
 109264 101684 3.9687e+12  710   39 4.4167e+12 3.9682e+12  10.2%  16.3  225s
 110675 102971 3.9688e+12  712   37 4.4167e+12 3.9682e+12  10.2%  17.0  230s
H113253 105425                    4.415623e+12 3.9682e+12  10.1%  16.7  233s
 114302 106395 3.9687e+12  607   34 4.4156e+12 3.9682e+12  10.1%  16.7  235s
 116321 108320 3.9684e+12  571   42 4.4156e+12 3.9682e+12  10.1%  16.9  240s
 119867 111497 3.9682e+12  800   40 4.4156e+12 3.9682e+12  10.1%  16.6  245s
 123766 115206 3.9687e+12  588   36 4.4156e+12 3.9682e+12  10.1%  16.3  250s
 127134 118406 3.9688e+12 1174   39 4.4156e+12 3.9682e+12  10.1%  16.1  255s
 130485 121352 3.9698e+12  778   26 4.4156e+12 3.9682e+12  10.1%  15.9  260s
 133392 123707 3.9682e+12  831   36 4.4156e+12 3.9682e+12  10.1%  15.7  265s
 137873 127957 3.9682e+12  824   36 4.4156e+12 3.9682e+12  10.1%  15.3  270s
H139311 129278                    4.402592e+12 3.9682e+12  9.87%  15.3  271s
 141599 131474 3.9687e+12 1304   36 4.4026e+12 3.9682e+12  9.87%  15.1  275s
 146614 136181 3.9682e+12  712   39 4.4026e+12 3.9682e+12  9.87%  14.8  280s
 151527 140890 3.9682e+12  752   40 4.4026e+12 3.9682e+12  9.87%  14.5  285s
 155402 144620 3.9682e+12 1001   35 4.4026e+12 3.9682e+12  9.87%  14.2  290s
 159652 148525 3.9682e+12  912   41 4.4026e+12 3.9682e+12  9.87%  14.0  295s
 163700 152220 infeasible 1221      4.4026e+12 3.9682e+12  9.87%  13.8  300s
 168254 156621 3.9687e+12 1201   38 4.4026e+12 3.9682e+12  9.87%  13.5  305s
 170473 158608 3.9688e+12  719   34 4.4026e+12 3.9682e+12  9.87%  13.7  310s
 171871 159842 3.9697e+12 1308   39 4.4026e+12 3.9682e+12  9.87%  14.0  315s
 176266 163961 3.9682e+12  729   39 4.4026e+12 3.9682e+12  9.87%  13.7  320s
H178882 166388                    4.228772e+12 3.9682e+12  6.16%  13.6  323s
 180537 168007 3.9682e+12 1400   43 4.2288e+12 3.9682e+12  6.16%  13.5  325s
 184656 171733 3.9682e+12  825   35 4.2288e+12 3.9682e+12  6.16%  13.4  330s
 189335 176272 3.9696e+12 1272   53 4.2288e+12 3.9682e+12  6.16%  13.2  335s
 193564 180302 3.9682e+12 1062   40 4.2288e+12 3.9682e+12  6.16%  13.0  340s
 197449 183957 3.9682e+12  899   39 4.2288e+12 3.9682e+12  6.16%  12.8  345s
 201880 188216 3.9682e+12  894   39 4.2288e+12 3.9682e+12  6.16%  12.7  350s
 206660 192701 3.9695e+12 1445   39 4.2288e+12 3.9682e+12  6.16%  12.5  355s
 210242 195976 3.9684e+12  591   39 4.2288e+12 3.9682e+12  6.16%  12.5  360s
H210663 196313                    4.228281e+12 3.9682e+12  6.15%  13.1  364s
 210706 196338 3.9684e+12  662   38 4.2283e+12 3.9682e+12  6.15%  13.1  365s
 212469 197693 3.9682e+12  755   39 4.2283e+12 3.9682e+12  6.15%  13.3  370s
 216456 201458 3.9682e+12  878   37 4.2283e+12 3.9682e+12  6.15%  13.2  375s
H217136 202119                    4.228280e+12 3.9682e+12  6.15%  13.2  375s
 220848 205566 3.9696e+12 1382   38 4.2283e+12 3.9682e+12  6.15%  13.0  380s
 225366 209913 infeasible 1191      4.2283e+12 3.9682e+12  6.15%  12.9  385s
 228839 213176 3.9682e+12  680   39 4.2283e+12 3.9682e+12  6.15%  12.8  390s
 232982 217107 3.9682e+12  924   39 4.2283e+12 3.9682e+12  6.15%  12.7  395s
 237296 221241 3.9690e+12 1276   39 4.2283e+12 3.9682e+12  6.15%  12.6  400s
 241665 225215 3.9682e+12 1462   41 4.2283e+12 3.9682e+12  6.15%  12.4  405s
 245702 229014 3.9689e+12 1294   39 4.2283e+12 3.9682e+12  6.15%  12.3  410s
H246896 229996                    4.227522e+12 3.9682e+12  6.13%  12.3  411s
 250454 233449 3.9690e+12 1273   38 4.2275e+12 3.9682e+12  6.13%  12.2  415s
 253752 236512 3.9688e+12  641   39 4.2275e+12 3.9682e+12  6.13%  12.2  420s
H253849 236589                    4.221178e+12 3.9682e+12  5.99%  12.2  420s
H253883 236615                    4.204878e+12 3.9682e+12  5.63%  12.2  421s
 256217 238604 3.9682e+12 1004   39 4.2049e+12 3.9682e+12  5.63%  12.1  425s
 260989 243137 infeasible 1290      4.2049e+12 3.9682e+12  5.63%  12.0  430s
 265149 247013 infeasible 1152      4.2049e+12 3.9682e+12  5.63%  11.9  435s
 268332 249714 infeasible  895      4.2049e+12 3.9682e+12  5.63%  11.8  440s
 272535 253614 3.9682e+12  754   35 4.2049e+12 3.9682e+12  5.63%  11.7  445s
 276264 257046 3.9695e+12  700   35 4.2049e+12 3.9682e+12  5.63%  11.7  450s
 280773 261308 3.9695e+12  780   36 4.2049e+12 3.9682e+12  5.63%  11.6  455s
H284205 264491                    4.204817e+12 3.9682e+12  5.63%  11.5  459s
 285009 265251 3.9690e+12  601   32 4.2048e+12 3.9682e+12  5.63%  11.5  460s
 289319 269410 3.9687e+12  755   34 4.2048e+12 3.9682e+12  5.63%  11.4  465s
 293337 273208 3.9682e+12  800   36 4.2048e+12 3.9682e+12  5.63%  11.3  470s
 298101 277749 3.9682e+12 1009   36 4.2048e+12 3.9682e+12  5.63%  11.2  475s
 302931 282294 3.9691e+12 1006   32 4.2048e+12 3.9682e+12  5.63%  11.1  480s
 307373 286439 3.9682e+12  803   31 4.2048e+12 3.9682e+12  5.63%  11.0  485s
 310960 289497 3.9684e+12  930   30 4.2048e+12 3.9682e+12  5.63%  10.9  490s
 314713 292958 3.9682e+12  785   36 4.2048e+12 3.9682e+12  5.63%  10.9  495s
 318455 296355 3.9691e+12  872   35 4.2048e+12 3.9682e+12  5.63%  10.8  500s
 322604 300004 3.9683e+12 1168   57 4.2048e+12 3.9682e+12  5.63%  10.7  505s
H327033 304085                    4.204816e+12 3.9682e+12  5.63%  10.7  509s
 327035 304089 3.9684e+12  898   57 4.2048e+12 3.9682e+12  5.63%  10.7  510s
 331898 308552 infeasible 1235      4.2048e+12 3.9682e+12  5.63%  10.6  515s
 336139 312235 3.9682e+12  974   37 4.2048e+12 3.9682e+12  5.63%  10.5  520s
 340121 315838 3.9691e+12 1145   36 4.2048e+12 3.9682e+12  5.63%  10.4  525s
 342069 317477 infeasible  982      4.2048e+12 3.9682e+12  5.63%  10.6  530s
 346678 321524 3.9696e+12 1019   33 4.2048e+12 3.9682e+12  5.63%  10.5  535s
 351793 326176 infeasible 1024      4.2048e+12 3.9682e+12  5.63%  10.4  540s
 356490 330563 3.9690e+12  971   38 4.2048e+12 3.9682e+12  5.63%  10.3  545s
 359835 333314 3.9696e+12 1009   33 4.2048e+12 3.9682e+12  5.63%  10.3  550s
 365074 338087 3.9696e+12  855   33 4.2048e+12 3.9682e+12  5.63%  10.2  555s
 368700 341273 3.9696e+12  911   23 4.2048e+12 3.9682e+12  5.63%  10.2  560s
H371800 343926                    4.200642e+12 3.9682e+12  5.53%  10.1  563s
 372809 344837 3.9696e+12  815   47 4.2006e+12 3.9682e+12  5.53%  10.1  565s
 377251 348621 3.9696e+12  850   48 4.2006e+12 3.9682e+12  5.53%  10.0  570s
 382050 352941 3.9689e+12 1180   41 4.2006e+12 3.9682e+12  5.53%   9.9  575s
 385759 356124 3.9688e+12  782   34 4.2006e+12 3.9682e+12  5.53%   9.9  580s
 390204 360285 3.9684e+12  999   54 4.2006e+12 3.9682e+12  5.53%   9.8  585s
H391676 361697                    4.200454e+12 3.9682e+12  5.53%   9.8  586s
 395221 364841 3.9682e+12  708   34 4.2005e+12 3.9682e+12  5.53%   9.8  590s
 399699 369095 3.9688e+12  650   31 4.2005e+12 3.9682e+12  5.53%   9.7  595s
 402578 371723 3.9689e+12 1029   38 4.2005e+12 3.9682e+12  5.53%   9.7  600s
 408778 377639 3.9682e+12 1214   40 4.2005e+12 3.9682e+12  5.53%   9.6  605s
 413221 381772 3.9682e+12 1098   38 4.2005e+12 3.9682e+12  5.53%   9.6  610s
H415313 383730                    4.200005e+12 3.9682e+12  5.52%   9.6  612s
 418057 386293 3.9682e+12  730   37 4.2000e+12 3.9682e+12  5.52%   9.5  615s
 423039 391055 3.9682e+12  766   36 4.2000e+12 3.9682e+12  5.52%   9.5  620s
 428058 395857 3.9688e+12 1339   41 4.2000e+12 3.9682e+12  5.52%   9.4  625s
 431534 398989 3.9682e+12  873   36 4.2000e+12 3.9682e+12  5.52%   9.4  630s
 435903 403122 3.9688e+12  788   37 4.2000e+12 3.9682e+12  5.52%   9.3  635s
 440477 407334 3.9697e+12  746   29 4.2000e+12 3.9682e+12  5.52%   9.3  640s
 444424 410853 3.9682e+12  656   35 4.2000e+12 3.9682e+12  5.52%   9.3  645s
H448045 414356                    4.199501e+12 3.9682e+12  5.51%   9.2  648s
 448888 415109 3.9689e+12 1094   34 4.1995e+12 3.9682e+12  5.51%   9.2  650s
 453260 419240 3.9687e+12  582   42 4.1995e+12 3.9682e+12  5.51%   9.2  655s
 453686 419632 3.9687e+12  659   33 4.1995e+12 3.9682e+12  5.51%   9.5  660s
 456197 421980 3.9682e+12  569   36 4.1995e+12 3.9682e+12  5.51%   9.6  665s
 461163 426741 3.9682e+12  888   58 4.1995e+12 3.9682e+12  5.51%   9.5  670s
 465803 431136 3.9682e+12  860   37 4.1995e+12 3.9682e+12  5.51%   9.5  675s
 468860 434019 3.9682e+12  847   58 4.1995e+12 3.9682e+12  5.51%   9.5  680s
H472263 437261                    4.198626e+12 3.9682e+12  5.49%   9.5  683s
 473420 438367 3.9689e+12 1389   37 4.1986e+12 3.9682e+12  5.49%   9.5  685s
 477921 442647 3.9682e+12  918   35 4.1986e+12 3.9682e+12  5.49%   9.5  690s
 482500 446927 3.9687e+12  617   35 4.1986e+12 3.9682e+12  5.49%   9.4  695s
 485442 449666 3.9688e+12 1248   34 4.1986e+12 3.9682e+12  5.49%   9.4  700s
 489696 453728 3.9682e+12  814   37 4.1986e+12 3.9682e+12  5.49%   9.4  705s
H493392 457158                    4.196349e+12 3.9682e+12  5.44%   9.4  709s
 493874 457612 3.9697e+12 1152   35 4.1963e+12 3.9682e+12  5.44%   9.4  710s
 497190 460592 infeasible  732      4.1963e+12 3.9682e+12  5.44%   9.3  715s
 503093 466000 3.9682e+12 1042   37 4.1963e+12 3.9682e+12  5.44%   9.3  720s
 508096 470791 3.9687e+12 1251   35 4.1963e+12 3.9682e+12  5.44%   9.2  725s
 512676 475125 3.9688e+12  939   50 4.1963e+12 3.9682e+12  5.44%   9.2  730s
 516701 478914 infeasible 1167      4.1963e+12 3.9682e+12  5.44%   9.1  735s
 521697 483642 3.9682e+12  988   37 4.1963e+12 3.9682e+12  5.44%   9.1  740s
 526288 487947 3.9690e+12  729   28 4.1963e+12 3.9682e+12  5.44%   9.1  745s
 530633 492069 3.9682e+12  893   39 4.1963e+12 3.9682e+12  5.44%   9.0  750s
 535338 496499 infeasible 1166      4.1963e+12 3.9682e+12  5.44%   9.0  755s
 539861 500777 3.9690e+12  761   37 4.1963e+12 3.9682e+12  5.44%   9.0  760s
 544812 505444 3.9687e+12 1040   39 4.1963e+12 3.9682e+12  5.44%   8.9  765s
H547414 507872                    4.196333e+12 3.9682e+12  5.44%   8.9  768s
 549191 509567 3.9698e+12 1416   34 4.1963e+12 3.9682e+12  5.44%   8.9  770s
 553215 513318 3.9682e+12 1273   39 4.1963e+12 3.9682e+12  5.44%   8.9  775s
H554741 514776                    4.196333e+12 3.9682e+12  5.44%   8.9  776s
 558477 518276 3.9682e+12 1082   37 4.1963e+12 3.9682e+12  5.44%   8.8  780s
 563524 522908 3.9682e+12 1003   40 4.1963e+12 3.9682e+12  5.44%   8.8  785s
 567053 525922 3.9682e+12  836   38 4.1963e+12 3.9682e+12  5.44%   8.8  790s
 572099 530790 3.9688e+12  884   33 4.1963e+12 3.9682e+12  5.44%   8.7  795s
 576168 534405 3.9696e+12  798   25 4.1963e+12 3.9682e+12  5.44%   8.7  800s
H577795 535852                    4.192896e+12 3.9682e+12  5.36%   8.7  802s
 580288 538253 3.9682e+12  969   37 4.1929e+12 3.9682e+12  5.36%   8.7  805s
 584771 542485 3.9682e+12 1040   39 4.1929e+12 3.9682e+12  5.36%   8.6  810s
 589177 546575 3.9697e+12  796   24 4.1929e+12 3.9682e+12  5.36%   8.6  815s
 593206 550144 3.9689e+12  971   35 4.1929e+12 3.9682e+12  5.36%   8.6  820s
 598700 555382 3.9682e+12  753   36 4.1929e+12 3.9682e+12  5.36%   8.5  825s
 604122 560580 3.9682e+12  698   34 4.1929e+12 3.9682e+12  5.36%   8.5  830s
 608924 565141 3.9682e+12  722   40 4.1929e+12 3.9682e+12  5.36%   8.5  835s
H610311 566416                    4.192893e+12 3.9682e+12  5.36%   8.5  836s
 614315 570170 3.9682e+12  676   35 4.1929e+12 3.9682e+12  5.36%   8.4  840s
 616941 572677 3.9687e+12  681   36 4.1929e+12 3.9682e+12  5.36%   8.5  845s
H620661 575976                    4.191038e+12 3.9682e+12  5.32%   8.5  849s
 620828 576145 3.9682e+12  825   38 4.1910e+12 3.9682e+12  5.32%   8.5  850s
 625311 580459 3.9690e+12 1235   33 4.1910e+12 3.9682e+12  5.32%   8.5  855s
 629485 584381 3.9687e+12  599   37 4.1910e+12 3.9682e+12  5.32%   8.5  860s
 629852 584712 3.9687e+12  668   33 4.1910e+12 3.9682e+12  5.32%   8.7  865s
 632909 587382 3.9688e+12 1228   35 4.1910e+12 3.9682e+12  5.32%   8.7  870s
H633020 587491                    4.191009e+12 3.9682e+12  5.32%   8.7  870s
H633022 587491                    4.190460e+12 3.9682e+12  5.30%   8.7  870s
 637842 592121 3.9682e+12  740   37 4.1905e+12 3.9682e+12  5.30%   8.7  875s
 642345 596425 3.9688e+12 1214   46 4.1905e+12 3.9682e+12  5.30%   8.7  880s
 646417 599898 3.9690e+12 1209   35 4.1905e+12 3.9682e+12  5.30%   8.6  885s
 652046 605160 3.9685e+12 1322   35 4.1905e+12 3.9682e+12  5.30%   8.6  890s
H654875 607746                    4.189886e+12 3.9682e+12  5.29%   8.6  892s
 655505 608188 3.9689e+12  928   37 4.1899e+12 3.9682e+12  5.29%   8.6  895s
 658545 610866 3.9682e+12 1026   38 4.1899e+12 3.9682e+12  5.29%   8.7  900s
 663414 615504 3.9696e+12 1212   36 4.1899e+12 3.9682e+12  5.29%   8.7  905s
 668015 619850 3.9684e+12  620   42 4.1899e+12 3.9682e+12  5.29%   8.6  910s
 668681 620416 3.9688e+12  716   36 4.1899e+12 3.9682e+12  5.29%   8.8  915s
 670832 622035 3.9682e+12  743   34 4.1899e+12 3.9682e+12  5.29%   8.9  920s
 675967 626945 3.9682e+12 1151   37 4.1899e+12 3.9682e+12  5.29%   8.9  925s
 680863 631608 3.9682e+12  877   38 4.1899e+12 3.9682e+12  5.29%   8.8  930s
 686374 636604 3.9682e+12 1178   41 4.1899e+12 3.9682e+12  5.29%   8.8  935s
 691360 641373 3.9682e+12  657   35 4.1899e+12 3.9682e+12  5.29%   8.8  940s
 696646 646429 3.9696e+12 1469   45 4.1899e+12 3.9682e+12  5.29%   8.7  945s
 701682 651091 3.9682e+12  745   37 4.1899e+12 3.9682e+12  5.29%   8.7  950s
 706822 656023 3.9682e+12  778   39 4.1899e+12 3.9682e+12  5.29%   8.7  955s
 711263 660216 3.9697e+12  674   34 4.1899e+12 3.9682e+12  5.29%   8.6  960s
H711381 660306                    4.189886e+12 3.9682e+12  5.29%   8.6  960s
 714877 663103 3.9682e+12  949   37 4.1899e+12 3.9682e+12  5.29%   8.6  965s
 718964 666912 3.9682e+12  975   36 4.1899e+12 3.9682e+12  5.29%   8.6  970s
 722502 670240 3.9682e+12  624   35 4.1899e+12 3.9682e+12  5.29%   8.6  975s
 726350 673933 3.9686e+12  666   36 4.1899e+12 3.9682e+12  5.29%   8.6  980s
H726390 673917                    4.156976e+12 3.9682e+12  4.54%   8.6  980s
 726986 674397 3.9686e+12  740   39 4.1570e+12 3.9682e+12  4.54%   8.7  985s
 728085 674989 3.9682e+12  768   33 4.1570e+12 3.9682e+12  4.54%   8.7  990s
 733113 679652 3.9682e+12  887   34 4.1570e+12 3.9682e+12  4.54%   8.7  995s

Explored 738056 nodes (6409371 simplex iterations) in 1000.01 seconds
Thread count was 1 (of 8 available processors)

Time limit reached
Best objective 4.156976475047e+12, best bound 3.968180498956e+12, gap 4.5417%
